c FILE /home/rafael/Documents/HappySet/MIHS/inputs/happygen/output/graph_d_regular_k4_p0.3_v50_20241127_082614.txt
c SOURCE This is a d-regular graph formed for the happy graph colouring problem.
c DESCRIPTION It was generated using the problem generator of Rhyd Lewis
c
c GRAPH STATS
c Seed                             = -1561489083
c Number of Nodes                  = 50
c Number of colours k              = 4
c Number of pre-assignments        = 15
c Degree of all vertices           = 6
c Density                          = 0.122449
c 
c The degrees of nodes 1 to 50, respectively, are as follows 
c [6, 6, 6, 6, 6, 6, 6, 6, 6, 6, 6, 6, 6, 6, 6, 6, 6, 6, 6, 6, 6, 6, 6, 6, 6, 6, 
c  6, 6, 6, 6, 6, 6, 6, 6, 6, 6, 6, 6, 6, 6, 6, 6, 6, 6, 6, 6, 6, 6, 6, 6] 
c  
p edge 50 150 4
e 1 24
e 1 28
e 1 35
e 1 40
e 1 45
e 1 49
e 2 5
e 2 7
e 2 33
e 2 35
e 2 36
e 2 45
e 3 14
e 3 22
e 3 25
e 3 35
e 3 48
e 3 50
e 4 8
e 4 14
e 4 36
e 4 37
e 4 41
e 4 46
e 5 27
e 5 28
e 5 31
e 5 34
e 5 47
e 6 10
e 6 15
e 6 17
e 6 19
e 6 26
e 6 39
e 7 8
e 7 17
e 7 31
e 7 37
e 7 39
e 8 20
e 8 21
e 8 24
e 8 30
e 9 18
e 9 22
e 9 38
e 9 40
e 9 45
e 9 47
e 10 17
e 10 28
e 10 29
e 10 37
e 10 43
e 11 20
e 11 26
e 11 33
e 11 35
e 11 40
e 11 46
e 12 18
e 12 24
e 12 35
e 12 45
e 12 49
e 12 50
e 13 26
e 13 28
e 13 30
e 13 31
e 13 37
e 13 38
e 14 16
e 14 18
e 14 34
e 14 44
e 15 19
e 15 23
e 15 33
e 15 39
e 15 49
e 16 20
e 16 21
e 16 33
e 16 45
e 16 50
e 17 21
e 17 23
e 17 31
e 18 27
e 18 41
e 18 50
e 19 33
e 19 36
e 19 43
e 19 44
e 20 22
e 20 25
e 20 38
e 21 29
e 21 48
e 21 50
e 22 32
e 22 36
e 22 42
e 23 38
e 23 39
e 23 41
e 23 44
e 24 29
e 24 31
e 24 32
e 25 29
e 25 30
e 25 34
e 25 47
e 26 30
e 26 34
e 26 47
e 27 29
e 27 36
e 27 37
e 27 47
e 28 33
e 28 44
e 29 49
e 30 31
e 30 42
e 32 34
e 32 38
e 32 42
e 32 48
e 34 45
e 35 42
e 36 38
e 37 43
e 39 40
e 39 44
e 40 43
e 40 48
e 41 44
e 41 48
e 41 49
e 42 43
e 42 46
e 43 49
e 46 47
e 46 48
e 46 50
n 1 3
n 8 4
n 11 4
n 13 4
n 14 2
n 15 4
n 17 3
n 22 4
n 25 4
n 33 4
n 43 2
n 44 2
n 45 3
n 47 4
n 48 1
